c defined variables: 47 48 49 50 51 52 53 54 55 56 57 58 59 60 61 62 63 64 65 66 67 68 69 70 71 72 73 74 75 76 77 78 79 80 81 82 83 84 85 86 87 88 89 90 91 92 93 96 97 98 101 104 107 110 113 116 119 122 125 126 127 128 129 130 131 132 133 134 135 136 137 138 139 140 141 142 143 144 145 146 147 148 149 150 151 152 153 154 155 156 157 158 159 160 161 162 163 164 165 166 167 168 169 170 171 172 173 174 175 176 177 178 179 180 181 182 183 184 185 186 187 188 189 190 191 192 193 194 195 196 197 198 199 200 201 202 203 204 205 206 207 208 209 210 211 212 213 214 215 216 217 218 219 220 221 222 223 224 225 226 227 228 229 230 231 232 233 234 235 236 237 238 239 240 241 242 243 244 245 246 247 248 249 250 251 252 253 254 255 256 257 258 259 260 261 262 263 264 265 266 267 268 269 270 271 272 273 274 275 276 277 278 279 280 281 282 283 284 285 286 287 288 289 290 291 292 293 294 295 296 297 298 299 300 301 302 303 304 305 306 307 308 309 310 311 312 313 314 315 316 
p cnf 1372 2041
a 11 12 13 14 15 16 17 18 19 20 21 22 23 24 25 26 27 28 29 30 31 32 33 34 35 36 37 38 39 40 41 42 43 44 0
e 94 95 99 100 102 103 105 106 108 109 111 112 114 115 117 118 120 121 123 124 47 48 49 50 51 52 53 54 55 56 57 58 59 60 61 62 63 64 65 66 67 68 69 70 71 72 73 74 75 76 77 78 79 80 81 82 83 84 85 86 87 88 89 90 91 92 93 96 97 98 101 104 107 110 113 116 119 122 125 126 127 128 129 130 131 132 133 134 135 136 137 138 139 140 141 142 143 144 145 146 147 148 149 150 151 152 153 154 155 156 157 158 159 160 161 162 163 164 165 166 167 168 169 170 171 172 173 174 175 176 177 178 179 180 181 182 183 184 185 186 187 188 189 190 191 192 193 194 195 196 197 198 199 200 201 202 203 204 205 206 207 208 209 210 211 212 213 214 215 216 217 218 219 220 221 222 223 224 225 226 227 228 229 230 231 232 233 234 235 236 237 238 239 240 241 242 243 244 245 246 247 248 249 250 251 252 253 254 255 256 257 258 259 260 261 262 263 264 265 266 267 268 269 270 271 272 273 274 275 276 277 278 279 280 281 282 283 284 285 286 287 288 289 290 291 292 293 294 295 296 297 298 299 300 301 302 303 304 305 306 307 308 309 310 311 312 313 314 315 316 1129 1130 1131 1132 1133 1134 1135 1136 1137 1138 1139 1140 1141 1142 1143 1144 1145 1146 1147 1148 1149 1150 1151 1152 1153 1154 1155 1156 1157 1158 1159 1160 1161 1162 1163 1164 1165 1166 1167 1168 1169 1170 1171 1172 1173 1174 1175 1176 1177 1178 1179 1180 1181 1182 1183 1184 1185 1186 1187 1188 1189 1190 1191 1192 1193 1194 1195 1196 1197 1198 1199 1200 1201 1202 1203 1204 1205 1206 1207 1208 1209 1210 1211 1212 1213 1214 1215 1216 1217 1218 1219 1220 1221 1222 1223 1224 1225 1226 1227 1228 1229 1230 1231 1232 1233 1234 1235 1236 1237 1238 1239 1240 1241 1242 1243 1244 1245 1246 1247 1248 1249 1250 1251 1252 1253 1254 1255 1256 1257 1258 1259 1260 1261 1262 1263 1264 1265 1266 1267 1268 1269 1270 1271 1272 1273 1274 1275 1276 1277 1278 1279 1280 1281 1282 1283 1284 1285 1286 1287 1288 1289 1290 1291 1292 1293 1294 1295 1296 1297 1298 1299 1300 1301 1302 1303 1304 1305 1306 1307 1308 1309 1310 1311 1312 1313 1314 1315 1316 1317 1318 1319 1320 1321 1322 1323 1324 1325 1326 1327 1328 1329 1330 1331 1332 1333 1334 1335 1336 1337 1338 1339 1340 1341 1342 1343 1344 1345 1346 1347 1348 1349 1350 1351 1352 1353 1354 1355 1356 1357 1358 1359 1360 1361 1362 1363 1364 1365 1366 1367 1368 1369 1370 1371 1372 0
d 1 11 12 13 14 15 16 17 18 19 20 21 22 23 24 25 26 27 28 29 30 31 32 0
d 2 11 12 13 14 15 16 17 18 19 20 21 22 23 24 25 26 27 28 29 30 31 32 0
d 3 11 12 13 14 15 16 17 18 19 20 21 22 23 24 25 26 27 28 29 30 31 32 0
d 4 11 12 13 14 15 16 17 18 19 20 21 22 23 24 25 26 27 28 29 30 31 32 0
d 5 11 12 13 14 15 16 17 18 19 20 21 22 23 24 25 26 27 28 29 30 31 32 0
d 6 11 12 13 14 15 16 17 18 19 20 21 22 23 24 25 26 27 28 29 30 31 32 0
d 7 11 12 13 14 15 16 17 18 19 20 21 22 23 24 25 26 27 28 29 30 31 32 0
d 8 11 12 13 14 15 16 17 18 19 20 21 22 23 24 25 26 27 28 29 30 31 32 0
d 9 11 12 13 14 15 16 17 18 19 20 21 22 23 24 25 26 27 28 29 30 31 32 0
d 10 11 12 13 14 15 16 17 18 19 20 21 22 23 24 25 26 27 28 29 30 31 32 0
d 45 21 22 23 24 25 26 27 28 29 30 31 32 0
d 46 33 34 35 36 37 38 39 40 41 42 43 44 0
1130 -47 0
-1130 47 0
1131 -48 0
-1131 48 0
1132 -49 0
-1132 49 0
1133 -50 0
-1133 50 0
1134 -51 0
-1134 51 0
1135 -52 0
-1135 52 0
1136 -53 0
-1136 53 0
1137 -54 0
-1137 54 0
1138 -55 0
-1138 55 0
1139 -56 0
-1139 56 0
1140 -57 0
-1140 57 0
1141 -58 0
-1141 58 0
1142 -59 0
-1142 59 0
1143 -60 0
-1143 60 0
1144 -61 0
-1144 61 0
1145 -62 0
-1145 62 0
1146 -63 0
-1146 63 0
1147 -64 0
-1147 64 0
1148 -65 0
-1148 65 0
1149 -66 0
-1149 66 0
1150 -67 0
-1150 67 0
1151 -68 0
-1151 68 0
1152 -69 0
-1152 69 0
1153 -70 0
-1153 70 0
1154 -71 0
-1154 71 0
1155 -72 0
-1155 72 0
1156 -73 0
-1156 73 0
1157 -74 0
-1157 74 0
1158 -75 0
-1158 75 0
1159 -76 0
-1159 76 0
1160 -77 0
-1160 77 0
1161 -78 0
-1161 78 0
1162 -79 0
-1162 79 0
1163 -80 0
-1163 80 0
1164 -81 0
-1164 81 0
1165 -82 0
-1165 82 0
1166 -83 0
-1166 83 0
1167 -84 0
-1167 84 0
1168 -85 0
-1168 85 0
1169 -86 0
-1169 86 0
1170 -87 0
-1170 87 0
1171 -88 0
-1171 88 0
1172 -89 0
-1172 89 0
1173 -90 0
-1173 90 0
1174 -91 0
-1174 91 0
1175 -92 0
-1175 92 0
1176 -93 0
-1176 93 0
1177 -96 0
-1177 96 0
-1129 -97 0
1129 97 0
1178 -98 0
-1178 98 0
1179 -101 0
-1179 101 0
1180 -104 0
-1180 104 0
1181 -107 0
-1181 107 0
1182 -110 0
-1182 110 0
1183 -113 0
-1183 113 0
1184 -116 0
-1184 116 0
1185 -119 0
-1185 119 0
1186 -122 0
-1186 122 0
1187 -125 0
-1187 125 0
1188 -126 0
-1188 126 0
1189 -127 0
-1189 127 0
1190 -128 0
-1190 128 0
1191 -129 0
-1191 129 0
1192 -130 0
-1192 130 0
-1193 -131 0
1193 131 0
1194 -132 0
-1194 132 0
1195 -133 0
-1195 133 0
1196 -134 0
-1196 134 0
1197 -135 0
-1197 135 0
-1198 -136 0
1198 136 0
1199 -137 0
-1199 137 0
1200 -138 0
-1200 138 0
1201 -139 0
-1201 139 0
1202 -140 0
-1202 140 0
-1203 -141 0
1203 141 0
1204 -142 0
-1204 142 0
1205 -143 0
-1205 143 0
1206 -144 0
-1206 144 0
1207 -145 0
-1207 145 0
-1208 -146 0
1208 146 0
1209 -147 0
-1209 147 0
1210 -148 0
-1210 148 0
1211 -149 0
-1211 149 0
1212 -150 0
-1212 150 0
-1213 -151 0
1213 151 0
1214 -152 0
-1214 152 0
1215 -153 0
-1215 153 0
1216 -154 0
-1216 154 0
1217 -155 0
-1217 155 0
-1218 -156 0
1218 156 0
1219 -157 0
-1219 157 0
1220 -158 0
-1220 158 0
1221 -159 0
-1221 159 0
1222 -160 0
-1222 160 0
1223 -161 0
-1223 161 0
1224 -162 0
-1224 162 0
-1225 -163 0
1225 163 0
1226 -164 0
-1226 164 0
1227 -165 0
-1227 165 0
1228 -166 0
-1228 166 0
1229 -167 0
-1229 167 0
1230 -168 0
-1230 168 0
1231 -169 0
-1231 169 0
1232 -170 0
-1232 170 0
1233 -171 0
-1233 171 0
1234 -172 0
-1234 172 0
1235 -173 0
-1235 173 0
1236 -174 0
-1236 174 0
1237 -175 0
-1237 175 0
1238 -176 0
-1238 176 0
1239 -177 0
-1239 177 0
-1240 -178 0
1240 178 0
1241 -179 0
-1241 179 0
1242 -180 0
-1242 180 0
1243 -181 0
-1243 181 0
1244 -182 0
-1244 182 0
1245 -183 0
-1245 183 0
1246 -184 0
-1246 184 0
1247 -185 0
-1247 185 0
1248 -186 0
-1248 186 0
1249 -187 0
-1249 187 0
1250 -188 0
-1250 188 0
1251 -189 0
-1251 189 0
1252 -190 0
-1252 190 0
1253 -191 0
-1253 191 0
1254 -192 0
-1254 192 0
1255 -193 0
-1255 193 0
-1256 -194 0
1256 194 0
1257 -195 0
-1257 195 0
1258 -196 0
-1258 196 0
1259 -197 0
-1259 197 0
1260 -198 0
-1260 198 0
1261 -199 0
-1261 199 0
1262 -200 0
-1262 200 0
1263 -201 0
-1263 201 0
1264 -202 0
-1264 202 0
1265 -203 0
-1265 203 0
1266 -204 0
-1266 204 0
1267 -205 0
-1267 205 0
1268 -206 0
-1268 206 0
1269 -207 0
-1269 207 0
1270 -208 0
-1270 208 0
1271 -209 0
-1271 209 0
1272 -210 0
-1272 210 0
1273 -211 0
-1273 211 0
1274 -212 0
-1274 212 0
1275 -213 0
-1275 213 0
1276 -214 0
-1276 214 0
-1277 -215 0
1277 215 0
1278 -216 0
-1278 216 0
1279 -217 0
-1279 217 0
1280 -218 0
-1280 218 0
1281 -219 0
-1281 219 0
1282 -220 0
-1282 220 0
1283 -221 0
-1283 221 0
1284 -222 0
-1284 222 0
1285 -223 0
-1285 223 0
1286 -224 0
-1286 224 0
1287 -225 0
-1287 225 0
1288 -226 0
-1288 226 0
1289 -227 0
-1289 227 0
1290 -228 0
-1290 228 0
1291 -229 0
-1291 229 0
1292 -230 0
-1292 230 0
1293 -231 0
-1293 231 0
1294 -232 0
-1294 232 0
1295 -233 0
-1295 233 0
1296 -234 0
-1296 234 0
1297 -235 0
-1297 235 0
1298 -236 0
-1298 236 0
1299 -237 0
-1299 237 0
1300 -238 0
-1300 238 0
1301 -239 0
-1301 239 0
1302 -240 0
-1302 240 0
1303 -241 0
-1303 241 0
1304 -242 0
-1304 242 0
1305 -243 0
-1305 243 0
1306 -244 0
-1306 244 0
1307 -245 0
-1307 245 0
1308 -246 0
-1308 246 0
1309 -247 0
-1309 247 0
1310 -248 0
-1310 248 0
1311 -249 0
-1311 249 0
1312 -250 0
-1312 250 0
1313 -251 0
-1313 251 0
1314 -252 0
-1314 252 0
1315 -253 0
-1315 253 0
1316 -254 0
-1316 254 0
1317 -255 0
-1317 255 0
1318 -256 0
-1318 256 0
1319 -257 0
-1319 257 0
1320 -258 0
-1320 258 0
1321 -259 0
-1321 259 0
1322 -260 0
-1322 260 0
1323 -261 0
-1323 261 0
1324 -262 0
-1324 262 0
1325 -263 0
-1325 263 0
1326 -264 0
-1326 264 0
1327 -265 0
-1327 265 0
1328 -266 0
-1328 266 0
1329 -267 0
-1329 267 0
1330 -268 0
-1330 268 0
1331 -269 0
-1331 269 0
1332 -270 0
-1332 270 0
1333 -271 0
-1333 271 0
1334 -272 0
-1334 272 0
1335 -273 0
-1335 273 0
1336 -274 0
-1336 274 0
1337 -275 0
-1337 275 0
1338 -276 0
-1338 276 0
1339 -277 0
-1339 277 0
1340 -278 0
-1340 278 0
1341 -279 0
-1341 279 0
1342 -280 0
-1342 280 0
1343 -281 0
-1343 281 0
1344 -282 0
-1344 282 0
1345 -283 0
-1345 283 0
1346 -284 0
-1346 284 0
1347 -285 0
-1347 285 0
1348 -286 0
-1348 286 0
1349 -287 0
-1349 287 0
1350 -288 0
-1350 288 0
1351 -289 0
-1351 289 0
-1129 -290 0
1129 290 0
1352 -291 0
-1352 291 0
1353 -292 0
-1353 292 0
1354 -293 0
-1354 293 0
1355 -294 0
-1355 294 0
1356 -295 0
-1356 295 0
1357 -296 0
-1357 296 0
1358 -297 0
-1358 297 0
1359 -298 0
-1359 298 0
1360 -299 0
-1360 299 0
1361 -300 0
-1361 300 0
-1129 -301 0
1129 301 0
1362 -302 0
-1362 302 0
1363 -303 0
-1363 303 0
1364 -304 0
-1364 304 0
1365 -305 0
-1365 305 0
1366 -306 0
-1366 306 0
1367 -307 0
-1367 307 0
1368 -308 0
-1368 308 0
1369 -309 0
-1369 309 0
1370 -310 0
-1370 310 0
1371 -311 0
-1371 311 0
1372 -312 0
-1372 312 0
-1129 -313 0
1129 313 0
1129 -314 0
-1129 314 0
1129 -315 0
-1129 315 0
1129 -316 0
-1129 316 0
-47 -41 0
-47 29 0
47 41 -29 0
-48 41 0
-48 -29 0
48 -41 29 0
-49 -47 0
-49 -48 0
49 47 48 0
-50 -42 0
-50 30 0
50 42 -30 0
-51 42 0
-51 -30 0
51 -42 30 0
-52 -50 0
-52 -51 0
52 50 51 0
-53 49 0
-53 52 0
53 -49 -52 0
-54 -43 0
-54 31 0
54 43 -31 0
-55 43 0
-55 -31 0
55 -43 31 0
-56 -54 0
-56 -55 0
56 54 55 0
-57 -44 0
-57 32 0
57 44 -32 0
-58 44 0
-58 -32 0
58 -44 32 0
-59 -57 0
-59 -58 0
59 57 58 0
-60 56 0
-60 59 0
60 -56 -59 0
-61 53 0
-61 60 0
61 -53 -60 0
-62 -33 0
-62 21 0
62 33 -21 0
-63 33 0
-63 -21 0
63 -33 21 0
-64 -62 0
-64 -63 0
64 62 63 0
-65 -34 0
-65 22 0
65 34 -22 0
-66 34 0
-66 -22 0
66 -34 22 0
-67 -65 0
-67 -66 0
67 65 66 0
-68 64 0
-68 67 0
68 -64 -67 0
-69 -35 0
-69 23 0
69 35 -23 0
-70 35 0
-70 -23 0
70 -35 23 0
-71 -69 0
-71 -70 0
71 69 70 0
-72 -36 0
-72 24 0
72 36 -24 0
-73 36 0
-73 -24 0
73 -36 24 0
-74 -72 0
-74 -73 0
74 72 73 0
-75 71 0
-75 74 0
75 -71 -74 0
-76 68 0
-76 75 0
76 -68 -75 0
-77 -37 0
-77 25 0
77 37 -25 0
-78 37 0
-78 -25 0
78 -37 25 0
-79 -77 0
-79 -78 0
79 77 78 0
-80 -38 0
-80 26 0
80 38 -26 0
-81 38 0
-81 -26 0
81 -38 26 0
-82 -80 0
-82 -81 0
82 80 81 0
-83 79 0
-83 82 0
83 -79 -82 0
-84 -39 0
-84 27 0
84 39 -27 0
-85 39 0
-85 -27 0
85 -39 27 0
-86 -84 0
-86 -85 0
86 84 85 0
-87 -40 0
-87 28 0
87 40 -28 0
-88 40 0
-88 -28 0
88 -40 28 0
-89 -87 0
-89 -88 0
89 87 88 0
-90 86 0
-90 89 0
90 -86 -89 0
-91 83 0
-91 90 0
91 -83 -90 0
-92 76 0
-92 91 0
92 -76 -91 0
-93 61 0
-93 92 0
93 -61 -92 0
-94 46 0
-94 -45 0
94 -46 45 0
-95 -46 0
-95 45 0
95 46 -45 0
-96 -94 0
-96 -95 0
96 94 95 0
-97 93 0
-97 -96 0
97 -93 96 0
-98 32 0
-98 21 0
98 -32 -21 0
-99 -2 0
-99 1 0
99 2 -1 0
-100 2 0
-100 -1 0
100 -2 1 0
-101 -99 0
-101 -100 0
101 99 100 0
-102 -3 0
-102 -101 0
102 3 101 0
-103 3 0
-103 101 0
103 -3 -101 0
-104 -102 0
-104 -103 0
104 102 103 0
-105 -4 0
-105 -104 0
105 4 104 0
-106 4 0
-106 104 0
106 -4 -104 0
-107 -105 0
-107 -106 0
107 105 106 0
-108 -5 0
-108 -107 0
108 5 107 0
-109 5 0
-109 107 0
109 -5 -107 0
-110 -108 0
-110 -109 0
110 108 109 0
-111 -6 0
-111 -110 0
111 6 110 0
-112 6 0
-112 110 0
112 -6 -110 0
-113 -111 0
-113 -112 0
113 111 112 0
-114 -7 0
-114 -113 0
114 7 113 0
-115 7 0
-115 113 0
115 -7 -113 0
-116 -114 0
-116 -115 0
116 114 115 0
-117 -8 0
-117 -116 0
117 8 116 0
-118 8 0
-118 116 0
118 -8 -116 0
-119 -117 0
-119 -118 0
119 117 118 0
-120 -9 0
-120 -119 0
120 9 119 0
-121 9 0
-121 119 0
121 -9 -119 0
-122 -120 0
-122 -121 0
122 120 121 0
-123 -10 0
-123 -122 0
123 10 122 0
-124 10 0
-124 122 0
124 -10 -122 0
-125 -123 0
-125 -124 0
125 123 124 0
-126 98 0
-126 -125 0
126 -98 125 0
-127 22 0
-127 21 0
127 -22 -21 0
-128 11 0
-128 127 0
128 -11 -127 0
-129 23 0
-129 21 0
129 -23 -21 0
-130 -12 0
-130 -129 0
130 12 129 0
131 128 0
131 -130 0
-131 -128 130 0
-132 12 0
-132 129 0
132 -12 -129 0
-133 131 0
-133 -132 0
133 -131 132 0
-134 24 0
-134 21 0
134 -24 -21 0
-135 -13 0
-135 -134 0
135 13 134 0
136 -133 0
136 -135 0
-136 133 135 0
-137 13 0
-137 134 0
137 -13 -134 0
-138 136 0
-138 -137 0
138 -136 137 0
-139 25 0
-139 21 0
139 -25 -21 0
-140 -14 0
-140 -139 0
140 14 139 0
141 -138 0
141 -140 0
-141 138 140 0
-142 14 0
-142 139 0
142 -14 -139 0
-143 141 0
-143 -142 0
143 -141 142 0
-144 26 0
-144 21 0
144 -26 -21 0
-145 -15 0
-145 -144 0
145 15 144 0
146 -143 0
146 -145 0
-146 143 145 0
-147 15 0
-147 144 0
147 -15 -144 0
-148 146 0
-148 -147 0
148 -146 147 0
-149 27 0
-149 21 0
149 -27 -21 0
-150 -16 0
-150 -149 0
150 16 149 0
151 -148 0
151 -150 0
-151 148 150 0
-152 16 0
-152 149 0
152 -16 -149 0
-153 151 0
-153 -152 0
153 -151 152 0
-154 28 0
-154 21 0
154 -28 -21 0
-155 -17 0
-155 -154 0
155 17 154 0
156 -153 0
156 -155 0
-156 153 155 0
-157 17 0
-157 154 0
157 -17 -154 0
-158 156 0
-158 -157 0
158 -156 157 0
-159 29 0
-159 21 0
159 -29 -21 0
-160 18 0
-160 159 0
160 -18 -159 0
-161 -158 0
-161 160 0
161 158 -160 0
-162 -18 0
-162 -159 0
162 18 159 0
163 -158 0
163 -162 0
-163 158 162 0
-164 163 0
-164 -160 0
164 -163 160 0
-165 158 0
-165 162 0
165 -158 -162 0
-166 164 0
-166 -165 0
166 -164 165 0
-167 -161 0
-167 -166 0
167 161 166 0
-168 -126 0
-168 -167 0
168 126 167 0
-169 159 0
-169 126 0
169 -159 -126 0
-170 -168 0
-170 -169 0
170 168 169 0
-171 -41 0
-171 -170 0
171 41 170 0
-172 41 0
-172 170 0
172 -41 -170 0
-173 -171 0
-173 -172 0
173 171 172 0
-174 30 0
-174 21 0
174 -30 -21 0
-175 19 0
-175 174 0
175 -19 -174 0
-176 -164 0
-176 175 0
176 164 -175 0
-177 -19 0
-177 -174 0
177 19 174 0
178 -164 0
178 -177 0
-178 164 177 0
-179 178 0
-179 -175 0
179 -178 175 0
-180 164 0
-180 177 0
180 -164 -177 0
-181 179 0
-181 -180 0
181 -179 180 0
-182 -176 0
-182 -181 0
182 176 181 0
-183 -126 0
-183 -182 0
183 126 182 0
-184 174 0
-184 126 0
184 -174 -126 0
-185 -183 0
-185 -184 0
185 183 184 0
-186 -42 0
-186 -185 0
186 42 185 0
-187 42 0
-187 185 0
187 -42 -185 0
-188 -186 0
-188 -187 0
188 186 187 0
-189 173 0
-189 188 0
189 -173 -188 0
-190 31 0
-190 21 0
190 -31 -21 0
-191 20 0
-191 190 0
191 -20 -190 0
-192 -179 0
-192 191 0
192 179 -191 0
-193 -20 0
-193 -190 0
193 20 190 0
194 -179 0
194 -193 0
-194 179 193 0
-195 194 0
-195 -191 0
195 -194 191 0
-196 179 0
-196 193 0
196 -179 -193 0
-197 195 0
-197 -196 0
197 -195 196 0
-198 -192 0
-198 -197 0
198 192 197 0
-199 -126 0
-199 -198 0
199 126 198 0
-200 190 0
-200 126 0
200 -190 -126 0
-201 -199 0
-201 -200 0
201 199 200 0
-202 -43 0
-202 -201 0
202 43 201 0
-203 43 0
-203 201 0
203 -43 -201 0
-204 -202 0
-204 -203 0
204 202 203 0
-205 98 0
-205 195 0
205 -98 -195 0
-206 -98 0
-206 -195 0
206 98 195 0
-207 -205 0
-207 -206 0
207 205 206 0
-208 -207 0
-208 -126 0
208 207 126 0
-209 -44 0
-209 208 0
209 44 -208 0
-210 44 0
-210 -208 0
210 -44 208 0
-211 -209 0
-211 -210 0
211 209 210 0
-212 204 0
-212 211 0
212 -204 -211 0
-213 189 0
-213 212 0
213 -189 -212 0
-214 -11 0
-214 -127 0
214 11 127 0
215 -128 0
215 -214 0
-215 128 214 0
-216 -126 0
-216 -215 0
216 126 215 0
-217 127 0
-217 126 0
217 -127 -126 0
-218 -216 0
-218 -217 0
218 216 217 0
-219 -34 0
-219 -218 0
219 34 218 0
-220 34 0
-220 218 0
220 -34 -218 0
-221 -219 0
-221 -220 0
221 219 220 0
-222 33 0
-222 221 0
222 -33 -221 0
-223 -132 0
-223 -130 0
223 132 130 0
-224 128 0
-224 -223 0
224 -128 223 0
-225 -128 0
-225 223 0
225 128 -223 0
-226 -224 0
-226 -225 0
226 224 225 0
-227 -126 0
-227 -226 0
227 126 226 0
-228 129 0
-228 126 0
228 -129 -126 0
-229 -227 0
-229 -228 0
229 227 228 0
-230 -35 0
-230 -229 0
230 35 229 0
-231 35 0
-231 229 0
231 -35 -229 0
-232 -230 0
-232 -231 0
232 230 231 0
-233 -133 0
-233 137 0
233 133 -137 0
-234 133 0
-234 135 0
234 -133 -135 0
-235 138 0
-235 -234 0
235 -138 234 0
-236 -233 0
-236 -235 0
236 233 235 0
-237 -126 0
-237 -236 0
237 126 236 0
-238 134 0
-238 126 0
238 -134 -126 0
-239 -237 0
-239 -238 0
239 237 238 0
-240 -36 0
-240 -239 0
240 36 239 0
-241 36 0
-241 239 0
241 -36 -239 0
-242 -240 0
-242 -241 0
242 240 241 0
-243 232 0
-243 242 0
243 -232 -242 0
-244 222 0
-244 243 0
244 -222 -243 0
-245 -138 0
-245 142 0
245 138 -142 0
-246 138 0
-246 140 0
246 -138 -140 0
-247 143 0
-247 -246 0
247 -143 246 0
-248 -245 0
-248 -247 0
248 245 247 0
-249 -126 0
-249 -248 0
249 126 248 0
-250 139 0
-250 126 0
250 -139 -126 0
-251 -249 0
-251 -250 0
251 249 250 0
-252 -37 0
-252 -251 0
252 37 251 0
-253 37 0
-253 251 0
253 -37 -251 0
-254 -252 0
-254 -253 0
254 252 253 0
-255 -143 0
-255 147 0
255 143 -147 0
-256 143 0
-256 145 0
256 -143 -145 0
-257 148 0
-257 -256 0
257 -148 256 0
-258 -255 0
-258 -257 0
258 255 257 0
-259 -126 0
-259 -258 0
259 126 258 0
-260 144 0
-260 126 0
260 -144 -126 0
-261 -259 0
-261 -260 0
261 259 260 0
-262 -38 0
-262 -261 0
262 38 261 0
-263 38 0
-263 261 0
263 -38 -261 0
-264 -262 0
-264 -263 0
264 262 263 0
-265 254 0
-265 264 0
265 -254 -264 0
-266 -148 0
-266 152 0
266 148 -152 0
-267 148 0
-267 150 0
267 -148 -150 0
-268 153 0
-268 -267 0
268 -153 267 0
-269 -266 0
-269 -268 0
269 266 268 0
-270 -126 0
-270 -269 0
270 126 269 0
-271 149 0
-271 126 0
271 -149 -126 0
-272 -270 0
-272 -271 0
272 270 271 0
-273 -39 0
-273 -272 0
273 39 272 0
-274 39 0
-274 272 0
274 -39 -272 0
-275 -273 0
-275 -274 0
275 273 274 0
-276 -153 0
-276 157 0
276 153 -157 0
-277 153 0
-277 155 0
277 -153 -155 0
-278 158 0
-278 -277 0
278 -158 277 0
-279 -276 0
-279 -278 0
279 276 278 0
-280 -126 0
-280 -279 0
280 126 279 0
-281 154 0
-281 126 0
281 -154 -126 0
-282 -280 0
-282 -281 0
282 280 281 0
-283 -40 0
-283 -282 0
283 40 282 0
-284 40 0
-284 282 0
284 -40 -282 0
-285 -283 0
-285 -284 0
285 283 284 0
-286 275 0
-286 285 0
286 -275 -285 0
-287 265 0
-287 286 0
287 -265 -286 0
-288 244 0
-288 287 0
288 -244 -287 0
-289 213 0
-289 288 0
289 -213 -288 0
-290 289 0
-290 95 0
290 -289 -95 0
-291 22 0
-291 129 0
291 -22 -129 0
-292 291 0
-292 134 0
292 -291 -134 0
-293 292 0
-293 139 0
293 -292 -139 0
-294 293 0
-294 144 0
294 -293 -144 0
-295 294 0
-295 149 0
295 -294 -149 0
-296 295 0
-296 154 0
296 -295 -154 0
-297 296 0
-297 159 0
297 -296 -159 0
-298 297 0
-298 174 0
298 -297 -174 0
-299 298 0
-299 190 0
299 -298 -190 0
-300 299 0
-300 98 0
300 -299 -98 0
-301 45 0
-301 300 0
301 -45 -300 0
-302 -30 0
-302 -29 0
302 30 29 0
-303 -32 0
-303 -31 0
303 32 31 0
-304 302 0
-304 303 0
304 -302 -303 0
-305 -22 0
-305 -21 0
305 22 21 0
-306 -24 0
-306 -23 0
306 24 23 0
-307 305 0
-307 306 0
307 -305 -306 0
-308 -26 0
-308 -25 0
308 26 25 0
-309 -28 0
-309 -27 0
309 28 27 0
-310 308 0
-310 309 0
310 -308 -309 0
-311 307 0
-311 310 0
311 -307 -310 0
-312 304 0
-312 311 0
312 -304 -311 0
-313 -45 0
-313 312 0
313 45 -312 0
-314 -301 0
-314 -313 0
314 301 313 0
-315 -290 0
-315 314 0
315 290 -314 0
-316 -97 0
-316 315 0
316 97 -315 0
316 0
1129 0
29 -1130 0
-41 -1130 0
-29 41 1130 0
-29 -1131 0
41 -1131 0
29 -41 1131 0
-47 -1132 0
-48 -1132 0
47 48 1132 0
30 -1133 0
-42 -1133 0
-30 42 1133 0
-30 -1134 0
42 -1134 0
30 -42 1134 0
-50 -1135 0
-51 -1135 0
50 51 1135 0
49 -1136 0
52 -1136 0
-49 -52 1136 0
31 -1137 0
-43 -1137 0
-31 43 1137 0
-31 -1138 0
43 -1138 0
31 -43 1138 0
-54 -1139 0
-55 -1139 0
54 55 1139 0
32 -1140 0
-44 -1140 0
-32 44 1140 0
-32 -1141 0
44 -1141 0
32 -44 1141 0
-57 -1142 0
-58 -1142 0
57 58 1142 0
56 -1143 0
59 -1143 0
-56 -59 1143 0
53 -1144 0
60 -1144 0
-53 -60 1144 0
21 -1145 0
-33 -1145 0
-21 33 1145 0
-21 -1146 0
33 -1146 0
21 -33 1146 0
-62 -1147 0
-63 -1147 0
62 63 1147 0
22 -1148 0
-34 -1148 0
-22 34 1148 0
-22 -1149 0
34 -1149 0
22 -34 1149 0
-65 -1150 0
-66 -1150 0
65 66 1150 0
64 -1151 0
67 -1151 0
-64 -67 1151 0
23 -1152 0
-35 -1152 0
-23 35 1152 0
-23 -1153 0
35 -1153 0
23 -35 1153 0
-69 -1154 0
-70 -1154 0
69 70 1154 0
24 -1155 0
-36 -1155 0
-24 36 1155 0
-24 -1156 0
36 -1156 0
24 -36 1156 0
-72 -1157 0
-73 -1157 0
72 73 1157 0
71 -1158 0
74 -1158 0
-71 -74 1158 0
68 -1159 0
75 -1159 0
-68 -75 1159 0
25 -1160 0
-37 -1160 0
-25 37 1160 0
-25 -1161 0
37 -1161 0
25 -37 1161 0
-77 -1162 0
-78 -1162 0
77 78 1162 0
26 -1163 0
-38 -1163 0
-26 38 1163 0
-26 -1164 0
38 -1164 0
26 -38 1164 0
-80 -1165 0
-81 -1165 0
80 81 1165 0
79 -1166 0
82 -1166 0
-79 -82 1166 0
27 -1167 0
-39 -1167 0
-27 39 1167 0
-27 -1168 0
39 -1168 0
27 -39 1168 0
-84 -1169 0
-85 -1169 0
84 85 1169 0
28 -1170 0
-40 -1170 0
-28 40 1170 0
-28 -1171 0
40 -1171 0
28 -40 1171 0
-87 -1172 0
-88 -1172 0
87 88 1172 0
86 -1173 0
89 -1173 0
-86 -89 1173 0
83 -1174 0
90 -1174 0
-83 -90 1174 0
76 -1175 0
91 -1175 0
-76 -91 1175 0
61 -1176 0
92 -1176 0
-61 -92 1176 0
-94 -1177 0
-95 -1177 0
94 95 1177 0
21 -1178 0
32 -1178 0
-21 -32 1178 0
-99 -1179 0
-100 -1179 0
99 100 1179 0
-102 -1180 0
-103 -1180 0
102 103 1180 0
-105 -1181 0
-106 -1181 0
105 106 1181 0
-108 -1182 0
-109 -1182 0
108 109 1182 0
-111 -1183 0
-112 -1183 0
111 112 1183 0
-114 -1184 0
-115 -1184 0
114 115 1184 0
-117 -1185 0
-118 -1185 0
117 118 1185 0
-120 -1186 0
-121 -1186 0
120 121 1186 0
-123 -1187 0
-124 -1187 0
123 124 1187 0
98 -1188 0
-125 -1188 0
-98 125 1188 0
21 -1189 0
22 -1189 0
-21 -22 1189 0
11 -1190 0
127 -1190 0
-11 -127 1190 0
21 -1191 0
23 -1191 0
-21 -23 1191 0
-12 -1192 0
-129 -1192 0
12 129 1192 0
128 -1193 0
-130 -1193 0
-128 130 1193 0
12 -1194 0
129 -1194 0
-12 -129 1194 0
131 -1195 0
-132 -1195 0
-131 132 1195 0
21 -1196 0
24 -1196 0
-21 -24 1196 0
-13 -1197 0
-134 -1197 0
13 134 1197 0
-133 -1198 0
-135 -1198 0
133 135 1198 0
13 -1199 0
134 -1199 0
-13 -134 1199 0
136 -1200 0
-137 -1200 0
-136 137 1200 0
21 -1201 0
25 -1201 0
-21 -25 1201 0
-14 -1202 0
-139 -1202 0
14 139 1202 0
-138 -1203 0
-140 -1203 0
138 140 1203 0
14 -1204 0
139 -1204 0
-14 -139 1204 0
141 -1205 0
-142 -1205 0
-141 142 1205 0
21 -1206 0
26 -1206 0
-21 -26 1206 0
-15 -1207 0
-144 -1207 0
15 144 1207 0
-143 -1208 0
-145 -1208 0
143 145 1208 0
15 -1209 0
144 -1209 0
-15 -144 1209 0
146 -1210 0
-147 -1210 0
-146 147 1210 0
21 -1211 0
27 -1211 0
-21 -27 1211 0
-16 -1212 0
-149 -1212 0
16 149 1212 0
-148 -1213 0
-150 -1213 0
148 150 1213 0
16 -1214 0
149 -1214 0
-16 -149 1214 0
151 -1215 0
-152 -1215 0
-151 152 1215 0
21 -1216 0
28 -1216 0
-21 -28 1216 0
-17 -1217 0
-154 -1217 0
17 154 1217 0
-153 -1218 0
-155 -1218 0
153 155 1218 0
17 -1219 0
154 -1219 0
-17 -154 1219 0
156 -1220 0
-157 -1220 0
-156 157 1220 0
21 -1221 0
29 -1221 0
-21 -29 1221 0
18 -1222 0
159 -1222 0
-18 -159 1222 0
-158 -1223 0
160 -1223 0
158 -160 1223 0
-18 -1224 0
-159 -1224 0
18 159 1224 0
-158 -1225 0
-162 -1225 0
158 162 1225 0
-160 -1226 0
163 -1226 0
160 -163 1226 0
158 -1227 0
162 -1227 0
-158 -162 1227 0
164 -1228 0
-165 -1228 0
-164 165 1228 0
-161 -1229 0
-166 -1229 0
161 166 1229 0
-126 -1230 0
-167 -1230 0
126 167 1230 0
126 -1231 0
159 -1231 0
-126 -159 1231 0
-168 -1232 0
-169 -1232 0
168 169 1232 0
-41 -1233 0
-170 -1233 0
41 170 1233 0
41 -1234 0
170 -1234 0
-41 -170 1234 0
-171 -1235 0
-172 -1235 0
171 172 1235 0
21 -1236 0
30 -1236 0
-21 -30 1236 0
19 -1237 0
174 -1237 0
-19 -174 1237 0
-164 -1238 0
175 -1238 0
164 -175 1238 0
-19 -1239 0
-174 -1239 0
19 174 1239 0
-164 -1240 0
-177 -1240 0
164 177 1240 0
-175 -1241 0
178 -1241 0
175 -178 1241 0
164 -1242 0
177 -1242 0
-164 -177 1242 0
179 -1243 0
-180 -1243 0
-179 180 1243 0
-176 -1244 0
-181 -1244 0
176 181 1244 0
-126 -1245 0
-182 -1245 0
126 182 1245 0
126 -1246 0
174 -1246 0
-126 -174 1246 0
-183 -1247 0
-184 -1247 0
183 184 1247 0
-42 -1248 0
-185 -1248 0
42 185 1248 0
42 -1249 0
185 -1249 0
-42 -185 1249 0
-186 -1250 0
-187 -1250 0
186 187 1250 0
173 -1251 0
188 -1251 0
-173 -188 1251 0
21 -1252 0
31 -1252 0
-21 -31 1252 0
20 -1253 0
190 -1253 0
-20 -190 1253 0
-179 -1254 0
191 -1254 0
179 -191 1254 0
-20 -1255 0
-190 -1255 0
20 190 1255 0
-179 -1256 0
-193 -1256 0
179 193 1256 0
-191 -1257 0
194 -1257 0
191 -194 1257 0
179 -1258 0
193 -1258 0
-179 -193 1258 0
195 -1259 0
-196 -1259 0
-195 196 1259 0
-192 -1260 0
-197 -1260 0
192 197 1260 0
-126 -1261 0
-198 -1261 0
126 198 1261 0
126 -1262 0
190 -1262 0
-126 -190 1262 0
-199 -1263 0
-200 -1263 0
199 200 1263 0
-43 -1264 0
-201 -1264 0
43 201 1264 0
43 -1265 0
201 -1265 0
-43 -201 1265 0
-202 -1266 0
-203 -1266 0
202 203 1266 0
98 -1267 0
195 -1267 0
-98 -195 1267 0
-98 -1268 0
-195 -1268 0
98 195 1268 0
-205 -1269 0
-206 -1269 0
205 206 1269 0
-126 -1270 0
-207 -1270 0
126 207 1270 0
-44 -1271 0
208 -1271 0
44 -208 1271 0
44 -1272 0
-208 -1272 0
-44 208 1272 0
-209 -1273 0
-210 -1273 0
209 210 1273 0
204 -1274 0
211 -1274 0
-204 -211 1274 0
189 -1275 0
212 -1275 0
-189 -212 1275 0
-11 -1276 0
-127 -1276 0
11 127 1276 0
-128 -1277 0
-214 -1277 0
128 214 1277 0
-126 -1278 0
-215 -1278 0
126 215 1278 0
126 -1279 0
127 -1279 0
-126 -127 1279 0
-216 -1280 0
-217 -1280 0
216 217 1280 0
-34 -1281 0
-218 -1281 0
34 218 1281 0
34 -1282 0
218 -1282 0
-34 -218 1282 0
-219 -1283 0
-220 -1283 0
219 220 1283 0
33 -1284 0
221 -1284 0
-33 -221 1284 0
-130 -1285 0
-132 -1285 0
130 132 1285 0
128 -1286 0
-223 -1286 0
-128 223 1286 0
-128 -1287 0
223 -1287 0
128 -223 1287 0
-224 -1288 0
-225 -1288 0
224 225 1288 0
-126 -1289 0
-226 -1289 0
126 226 1289 0
126 -1290 0
129 -1290 0
-126 -129 1290 0
-227 -1291 0
-228 -1291 0
227 228 1291 0
-35 -1292 0
-229 -1292 0
35 229 1292 0
35 -1293 0
229 -1293 0
-35 -229 1293 0
-230 -1294 0
-231 -1294 0
230 231 1294 0
-133 -1295 0
137 -1295 0
133 -137 1295 0
133 -1296 0
135 -1296 0
-133 -135 1296 0
138 -1297 0
-234 -1297 0
-138 234 1297 0
-233 -1298 0
-235 -1298 0
233 235 1298 0
-126 -1299 0
-236 -1299 0
126 236 1299 0
126 -1300 0
134 -1300 0
-126 -134 1300 0
-237 -1301 0
-238 -1301 0
237 238 1301 0
-36 -1302 0
-239 -1302 0
36 239 1302 0
36 -1303 0
239 -1303 0
-36 -239 1303 0
-240 -1304 0
-241 -1304 0
240 241 1304 0
232 -1305 0
242 -1305 0
-232 -242 1305 0
222 -1306 0
243 -1306 0
-222 -243 1306 0
-138 -1307 0
142 -1307 0
138 -142 1307 0
138 -1308 0
140 -1308 0
-138 -140 1308 0
143 -1309 0
-246 -1309 0
-143 246 1309 0
-245 -1310 0
-247 -1310 0
245 247 1310 0
-126 -1311 0
-248 -1311 0
126 248 1311 0
126 -1312 0
139 -1312 0
-126 -139 1312 0
-249 -1313 0
-250 -1313 0
249 250 1313 0
-37 -1314 0
-251 -1314 0
37 251 1314 0
37 -1315 0
251 -1315 0
-37 -251 1315 0
-252 -1316 0
-253 -1316 0
252 253 1316 0
-143 -1317 0
147 -1317 0
143 -147 1317 0
143 -1318 0
145 -1318 0
-143 -145 1318 0
148 -1319 0
-256 -1319 0
-148 256 1319 0
-255 -1320 0
-257 -1320 0
255 257 1320 0
-126 -1321 0
-258 -1321 0
126 258 1321 0
126 -1322 0
144 -1322 0
-126 -144 1322 0
-259 -1323 0
-260 -1323 0
259 260 1323 0
-38 -1324 0
-261 -1324 0
38 261 1324 0
38 -1325 0
261 -1325 0
-38 -261 1325 0
-262 -1326 0
-263 -1326 0
262 263 1326 0
254 -1327 0
264 -1327 0
-254 -264 1327 0
-148 -1328 0
152 -1328 0
148 -152 1328 0
148 -1329 0
150 -1329 0
-148 -150 1329 0
153 -1330 0
-267 -1330 0
-153 267 1330 0
-266 -1331 0
-268 -1331 0
266 268 1331 0
-126 -1332 0
-269 -1332 0
126 269 1332 0
126 -1333 0
149 -1333 0
-126 -149 1333 0
-270 -1334 0
-271 -1334 0
270 271 1334 0
-39 -1335 0
-272 -1335 0
39 272 1335 0
39 -1336 0
272 -1336 0
-39 -272 1336 0
-273 -1337 0
-274 -1337 0
273 274 1337 0
-153 -1338 0
157 -1338 0
153 -157 1338 0
153 -1339 0
155 -1339 0
-153 -155 1339 0
158 -1340 0
-277 -1340 0
-158 277 1340 0
-276 -1341 0
-278 -1341 0
276 278 1341 0
-126 -1342 0
-279 -1342 0
126 279 1342 0
126 -1343 0
154 -1343 0
-126 -154 1343 0
-280 -1344 0
-281 -1344 0
280 281 1344 0
-40 -1345 0
-282 -1345 0
40 282 1345 0
40 -1346 0
282 -1346 0
-40 -282 1346 0
-283 -1347 0
-284 -1347 0
283 284 1347 0
275 -1348 0
285 -1348 0
-275 -285 1348 0
265 -1349 0
286 -1349 0
-265 -286 1349 0
244 -1350 0
287 -1350 0
-244 -287 1350 0
213 -1351 0
288 -1351 0
-213 -288 1351 0
22 -1352 0
129 -1352 0
-22 -129 1352 0
134 -1353 0
291 -1353 0
-134 -291 1353 0
139 -1354 0
292 -1354 0
-139 -292 1354 0
144 -1355 0
293 -1355 0
-144 -293 1355 0
149 -1356 0
294 -1356 0
-149 -294 1356 0
154 -1357 0
295 -1357 0
-154 -295 1357 0
159 -1358 0
296 -1358 0
-159 -296 1358 0
174 -1359 0
297 -1359 0
-174 -297 1359 0
190 -1360 0
298 -1360 0
-190 -298 1360 0
98 -1361 0
299 -1361 0
-98 -299 1361 0
-29 -1362 0
-30 -1362 0
29 30 1362 0
-31 -1363 0
-32 -1363 0
31 32 1363 0
302 -1364 0
303 -1364 0
-302 -303 1364 0
-21 -1365 0
-22 -1365 0
21 22 1365 0
-23 -1366 0
-24 -1366 0
23 24 1366 0
305 -1367 0
306 -1367 0
-305 -306 1367 0
-25 -1368 0
-26 -1368 0
25 26 1368 0
-27 -1369 0
-28 -1369 0
27 28 1369 0
308 -1370 0
309 -1370 0
-308 -309 1370 0
307 -1371 0
310 -1371 0
-307 -310 1371 0
304 -1372 0
311 -1372 0
-304 -311 1372 0
